(declare-const x0 Bool)
(declare-const x1 Bool)
(declare-const x2 Bool)
(declare-const x3 Bool)
(declare-const x4 Bool)
(declare-const x5 Bool)
(declare-const x6 Bool)
(declare-const x7 Bool)
(declare-const x8 Bool)
(declare-const x9 Bool)
(declare-const x10 Bool)
(declare-const x11 Bool)
(declare-const x12 Bool)
(declare-const x13 Bool)
(declare-const x14 Bool)
(declare-const x15 Bool)
(declare-const x16 Bool)
(declare-const x17 Bool)
(declare-const x18 Bool)
(declare-const x19 Bool)
(declare-const x20 Bool)
(declare-const x21 Bool)
(declare-const x22 Bool)
(declare-const x23 Bool)
(declare-const x24 Bool)
(declare-const x25 Bool)
(declare-const x26 Bool)
(declare-const x27 Bool)
(declare-const x28 Bool)
(declare-const x29 Bool)
(declare-const x30 Bool)
(declare-const x31 Bool)
(declare-const x32 Bool)
(declare-const x33 Bool)
(declare-const x34 Bool)
(declare-const x35 Bool)
(declare-const x36 Bool)
(declare-const x37 Bool)
(declare-const x38 Bool)
(declare-const x39 Bool)
(declare-const x40 Bool)
(declare-const x41 Bool)
(declare-const x42 Bool)
(declare-const x43 Bool)
(declare-const x44 Bool)
(declare-const x45 Bool)
(declare-const x46 Bool)
(declare-const x47 Bool)
(declare-const x48 Bool)
(declare-const x49 Bool)
(assert (and (= (or false (or x4 (or x38 true))) true) (or (= (= x20 (and x24 x23)) (or (= x34 x37) true)) true)))
(assert (and (and true x37) x7))
(assert (= (or x41 x21) (= (and x27 false) (and x16 x39))))
(assert (= (and (or (or false false) false) false) (and (= (or false true) x13) (or x5 (or false false)))))
(assert (= false (or x14 x2)))
(assert (= (or x43 (or x8 false)) (= x31 x12)))
(assert (or (= false x47) (= (= false true) x44)))
(assert x28)
(assert x3)
(assert (or x5 true))
(check-sat)
